32	0

0	3	2	3	5
2	1	4
1	1	4
9	2	6	8
3	2	6	8
2	1	7
10	1	9
10	1	9
5	1	10
8	1	11
4	2	12	13
8	1	14
1	1	14
2	1	15
10	1	16
3	1	17
2	1	18
4	1	19
9	2	20	21
5	1	22
1	1	22
7	1	23
7	1	24
3	1	25
8	1	26
4	1	27
3	2	28	29
4	1	30
3	1	30
10	1	31
3	1	32
0	0
